S = 4;
start = [|0,16,0,0,0,0,5,0,0,0,0,0,0,15,0,0|
9,0,0,15,6,16,0,0,0,10,11,1,14,0,0,12|
2,8,0,0,0,15,0,13,0,0,12,0,0,0,16,0|
0,0,0,0,0,0,0,0,0,0,0,15,0,0,9,13|
0,6,14,0,8,0,1,0,2,4,0,0,12,0,0,0|
0,0,0,0,0,12,15,0,1,0,0,9,0,2,14,0|
15,0,7,12,2,0,14,9,0,0,5,0,0,0,13,8|
1,0,0,5,3,0,0,0,0,0,0,0,0,0,15,6|
3,0,0,0,0,0,0,0,0,0,8,14,0,0,0,0|
0,0,0,0,13,0,9,7,4,0,0,10,0,6,12,0|
0,0,0,7,0,8,0,0,9,1,2,0,0,0,0,0|
4,10,0,0,0,0,12,0,0,0,16,5,0,0,8,0|
11,0,0,0,0,0,0,16,0,15,10,4,0,0,1,5|
0,0,0,6,0,0,8,0,0,2,0,0,0,0,4,0|
0,7,0,0,0,0,0,0,0,0,0,0,15,0,0,0|
0,0,0,4,15,0,13,1,11,5,0,0,9,12,0,0|];